COLUMNS

passenger_count
pickup_ID
dropoff_ID
request_time_sec
pickup_district
dropoff_district
LDuals
IDuals
vehicle_ID
pick_position
drop_position

REQUESTS_INFO
1      839       624       28993     290       189       175       175       308       1         2         
1      840       905       28982     290       290       162       162       330       1         2         
1      801       693       29007     291       280       92        92        355       1         3         
3      1291      1218      28993     129       84        185       185       396       1         2         
1      209       674       28992     266       189       107       107       479       1         3         
1      896       651       28955     291       189       192       192       550       1         3         
3      1014      279       28947     84        87        206       206       595       1         2         
3      1078      923       28966     84        290       193       193       668       1         2         
3      961       673       28955     291       189       149       149       682       1         2         
1      926       669       28987     290       280       172       172       749       1         3         
3      972       507       28868     290       189       269       269       765       1         3         
1      311       697       28999     87        189       127       127       822       1         3         
2      909       488       28933     290       199       244       244       912       1         2         
1      884       474       28981     290       52        157       157       921       1         3         
1      817       1002      28985     290       291       154       154       927       1         2         
1      864       605       28998     290       189       147       147       944       1         3         
3      909       488       28933     290       199       244       244       948       1         4         
1      909       925       28996     290       290       156       156       948       2         3         
2      894       626       28932     291       189       208       208       962       1         2         
3      813       622       29002     290       280       149       149       1016      1         2         
3      967       462       28831     50        189       330       330       1028      1         2         
3      908       994       28960     290       84        208       208       1058      1         2         
1      790       602       29008     290       189       90        90        1103      1         3         
3      905       444       29001     290       168       155       155       1107      1         2         
1      837       671       28991     290       280       123       123       1126      1         4         
3      913       621       28999     291       280       128       128       1130      1         2         
1      827       392       28994     291       52        113       113       1131      1         2         
1      1031      1069      28991     50        291       154       154       1145      1         2         
2      813       622       29002     290       280       149       149       1163      1         2         
3      1291      1218      28993     129       84        185       185       1185      1         2         
1      896       652       28944     291       189       203       203       1207      1         2         
2      913       621       28999     291       280       128       128       1213      1         2         
1      279       526       28917     87        52        253       253       1244      1         4         
1      279       218       28999     87        87        171       171       1244      2         3         
1      344       117       28999     299       286       136       136       1248      1         2         
1      303       116       28996     299       9         136       136       1254      1         2         
2      287       556       29010     299       199       0         0         0         0         0         
2      728       108       29010     290       178       0         0         0         0         0         
3      728       108       29010     290       178       0         0         0         0         0         
2      1031      1217      29010     50        84        0         0         0         0         0         
3      1031      1217      29010     50        84        0         0         0         0         0         
1      557       417       29010     189       100       0         0         0         0         0         
1      313       123       29010     87        54        0         0         0         0         0         
1      557       116       29010     189       9         0         0         0         0         0         
1      441       696       29010     168       189       0         0         0         0         0         
1      553       579       29010     189       189       0         0         0         0         0         
1      458       627       29012     52        189       0         0         0         0         0         
1      693       651       29012     280       189       0         0         0         0         0         
1      195       534       29012     207       199       0         0         0         0         0         
1      434       533       29012     52        199       0         0         0         0         0         
3      134       9         29013     9         98        0         0         0         0         0         
2      134       9         29013     9         98        0         0         0         0         0         
3      478       598       29013     52        189       0         0         0         0         0         
1      813       651       29013     290       189       0         0         0         0         0         
3      478       598       29013     52        189       0         0         0         0         0         
1      1218      1245      29014     84        192       0         0         0         0         0         
1      782       740       29015     291       50        0         0         0         0         0         
1      151       394       29015     9         100       0         0         0         0         0         
4      924       928       29015     290       290       0         0         0         0         0         
1      1087      698       29016     291       189       0         0         0         0         0         
1      969       925       29016     290       290       0         0         0         0         0         
2      505       579       29017     52        189       0         0         0         0         0         
3      505       579       29017     52        189       0         0         0         0         0         
1      631       526       29017     189       52        0         0         0         0         0         
3      598       670       29017     189       280       0         0         0         0         0         
1      1579      505       29017     296       52        0         0         0         0         0         
1      663       549       29017     131       52        0         0         0         0         0         
3      937       925       29017     291       290       0         0         0         0         0         
1      663       507       29017     131       189       0         0         0         0         0         
2      717       629       29018     189       189       0         0         0         0         0         
1      270       189       29018     127       286       0         0         0         0         0         
1      604       675       29018     189       189       0         0         0         0         0         
1      512       171       29018     199       286       0         0         0         0         0         
1      455       463       29018     52        168       0         0         0         0         0         
1      655       557       29018     189       189       0         0         0         0         0         
2      746       649       29019     290       189       0         0         0         0         0         
1      814       20        29019     290       98        0         0         0         0         0         
2      909       372       29019     290       119       0         0         0         0         0         
4      628       392       29019     189       52        0         0         0         0         0         
1      793       619       29021     290       131       0         0         0         0         0         
2      695       676       29022     189       189       0         0         0         0         0         
3      695       676       29022     189       189       0         0         0         0         0         
1      398       434       29022     168       52        0         0         0         0         0         
1      632       10        29022     189       98        0         0         0         0         0         
3      924       649       29023     290       189       0         0         0         0         0         
1      527       335       29023     52        119       0         0         0         0         0         
1      676       354       29023     189       119       0         0         0         0         0         
1      742       676       29023     290       189       0         0         0         0         0         
1      598       648       29024     189       189       0         0         0         0         0         
1      862       698       29024     290       189       0         0         0         0         0         
1      950       741       29024     290       50        0         0         0         0         0         
1      749       606       29024     290       189       0         0         0         0         0         
1      824       759       29024     291       131       0         0         0         0         0         
2      722       968       29025     290       290       0         0         0         0         0         
1      248       534       29025     266       199       0         0         0         0         0         
1      393       523       29025     52        52        0         0         0         0         0         
1      304       716       29025     299       189       0         0         0         0         0         
1      556       1126      29025     199       291       0         0         0         0         0         
1      950       603       29025     290       189       0         0         0         0         0         
1      463       582       29026     168       189       0         0         0         0         0         
1      724       604       29026     290       189       0         0         0         0         0         
2      549       454       29026     52        52        0         0         0         0         0         
1      333       581       29027     119       189       0         0         0         0         0         
1      337       120       29027     277       57        0         0         0         0         0         
1      277       356       29027     87        119       0         0         0         0         0         
1      689       759       29027     131       131       0         0         0         0         0         
1      814       1218      29027     290       84        0         0         0         0         0         
3      484       533       29028     189       199       0         0         0         0         0         
2      484       533       29028     189       199       0         0         0         0         0         
1      45        748       29028     98        290       0         0         0         0         0         
2      693       507       29029     280       189       0         0         0         0         0         
2      1132      1209      29029     291       192       0         0         0         0         0         
1      904       699       29030     290       290       0         0         0         0         0         
1      421       726       29030     168       290       0         0         0         0         0         
1      679       834       29030     290       290       0         0         0         0         0         
1      738       485       29030     189       189       0         0         0         0         0         
1      1066      1504      29030     291       296       0         0         0         0         0         
1      991       154       29030     290       286       0         0         0         0         0         
1      666       749       29031     131       290       0         0         0         0         0         
1      627       806       29032     189       50        0         0         0         0         0         
2      275       284       29033     87        299       0         0         0         0         0         
3      275       284       29033     87        299       0         0         0         0         0         
1      1095      1193      29033     84        129       0         0         0         0         0         
1      758       651       29033     131       189       0         0         0         0         0         
2      389       462       29033     299       189       0         0         0         0         0         
1      527       368       29033     52        299       0         0         0         0         0         
1      791       1032      29034     290       84        0         0         0         0         0         
1      434       386       29034     52        299       0         0         0         0         0         
1      873       915       29035     291       291       0         0         0         0         0         
1      458       720       29035     52        290       0         0         0         0         0         
1      481       720       29035     189       290       0         0         0         0         0         
2      735       1032      29036     131       84        0         0         0         0         0         
3      735       1032      29036     131       84        0         0         0         0         0         
2      643       717       29036     131       189       0         0         0         0         0         
1      726       678       29036     290       290       0         0         0         0         0         
1      884       357       29037     290       277       0         0         0         0         0         
1      883       575       29037     290       189       0         0         0         0         0         
1      793       508       29037     290       199       0         0         0         0         0         
1      502       60        29037     52        9         0         0         0         0         0         
2      745       527       29038     290       52        0         0         0         0         0         
1      838       719       29038     290       189       0         0         0         0         0         
1      527       313       29038     52        87        0         0         0         0         0         
1      747       699       29039     290       290       0         0         0         0         0         
1      608       439       29039     189       189       0         0         0         0         0         
